objective value:                                    0
delta[0,2]*                                        10 	(obj:0)
delta[1,3]*                                        10 	(obj:0)
mu[0,2,28]*                          2.65580031816815 	(obj:0)
mu[1,3,29]*                         0.483128127812024 	(obj:0)
mu[0,2,30]*                          3.51702291938347 	(obj:0)
mu[1,3,31]*                          1.36919510946757 	(obj:0)
mu[0,2,32]*                         0.159721962687999 	(obj:0)
mu[1,3,33]*                          1.79136922185777 	(obj:0)
mu[1,3,37]*                          6.35630754086263 	(obj:0)
mu[0,2,38]*                          3.19287188492246 	(obj:0)
mu[0,2,40]*                         0.474582914837928 	(obj:0)
